
******************************************************************************
This program contains Ipopt, a library for large-scale nonlinear optimization.
 Ipopt is released as open source code under the Eclipse Public License (EPL).
         For more information visit http://projects.coin-or.org/Ipopt

This version of Ipopt was compiled from source code available at
    https://github.com/IDAES/Ipopt as part of the Institute for the Design of
    Advanced Energy Systems Process Systems Engineering Framework (IDAES PSE
    Framework) Copyright (c) 2018-2019. See https://github.com/IDAES/idaes-pse.

This version of Ipopt was compiled using HSL, a collection of Fortran codes
    for large-scale scientific computation.  All technical papers, sales and
    publicity material resulting from use of the HSL codes within IPOPT must
    contain the following acknowledgement:
        HSL, a collection of Fortran codes for large-scale scientific
        computation. See http://www.hsl.rl.ac.uk.
******************************************************************************

This is Ipopt version 3.13.2, running with linear solver ma27.

Number of nonzeros in equality constraint Jacobian...:      928
Number of nonzeros in inequality constraint Jacobian.:        0
Number of nonzeros in Lagrangian Hessian.............:      806

Total number of variables............................:      403
                     variables with only lower bounds:      124
                variables with lower and upper bounds:      217
                     variables with only upper bounds:        0
Total number of equality constraints.................:      402
Total number of inequality constraints...............:        0
        inequality constraints with only lower bounds:        0
   inequality constraints with lower and upper bounds:        0
        inequality constraints with only upper bounds:        0

iter    objective    inf_pr   inf_du lg(mu)  ||d||  lg(rg) alpha_du alpha_pr  ls
   0  0.0000000e+00 1.17e+00 8.88e-16  -1.0 0.00e+00    -  0.00e+00 0.00e+00   0
   1  6.7191154e-01 9.07e-01 1.96e+04  -1.0 1.97e+05    -  4.58e-01 2.60e-01h  1
   2  7.0302898e-01 9.00e-01 1.97e+04  -1.0 1.81e+05    -  5.21e-01 7.75e-03h  1
   3  6.7512334e+00 5.03e-01 2.51e+04  -1.0 2.10e+05    -  5.34e-01 5.40e-01h  1
   4  2.0716839e+01 9.83e-02 1.08e+04  -1.0 1.15e+05    -  8.02e-01 9.90e-01h  1
   5  2.1964092e+01 5.46e-03 1.67e+02  -1.0 7.74e+03    -  9.80e-01 9.90e-01h  1
   6  2.1985144e+01 6.92e-05 6.30e+00  -1.0 1.70e+02    -  9.90e-01 9.90e-01h  1
   7  2.1994168e+01 6.71e-05 1.75e+07  -1.0 4.52e+03    -  6.23e-01 3.09e-02f  6
   8  2.2125073e+01 1.55e-04 1.76e+05  -1.0 2.05e+03    -  9.90e-01 9.90e-01H  1
   9  2.2269986e+01 1.26e-04 9.22e+06  -1.0 2.25e+03    -  9.93e-01 9.90e-01H  1
iter    objective    inf_pr   inf_du lg(mu)  ||d||  lg(rg) alpha_du alpha_pr  ls
  10  2.2228176e+01 4.74e-05 3.05e+09  -1.0 6.47e+02    -  1.00e+00 9.90e-01h  1
  11  2.2222829e+01 1.09e-06 3.05e+11  -1.0 8.27e+01    -  1.00e+00 9.90e-01h  1
In iteration 11, 31 Slacks too small, adjusting variable bounds
  12  2.2222702e+01 1.13e-08 3.05e+13  -1.0 1.97e+00    -  1.00e+00 9.90e-01h  1
  13  2.2222701e+01 1.84e-12 2.50e-01  -1.0 2.01e-02    -  1.00e+00 1.00e+00h  1
  14  2.2222233e+01 7.06e-09 3.08e+13  -9.0 6.01e+03    -  9.89e-01 1.19e-03f 10
  15  2.2222000e+01 8.81e-09 3.11e+13  -9.0 4.42e+03    -  9.93e-01 8.09e-04f 11
  16  2.2221768e+01 1.06e-08 3.11e+13  -9.0 4.00e+03    -  9.97e-01 8.94e-04f 11
  17  2.2221651e+01 1.10e-08 3.10e+13  -9.0 3.83e+03    -  1.00e+00 4.66e-04f 12
  18  2.2221535e+01 1.14e-08 3.10e+13  -9.0 3.75e+03    -  1.00e+00 4.76e-04f 12
  19  2.1985049e+01 3.01e-03 4.67e+11  -9.0 3.71e+03    -  1.00e+00 9.85e-01f  1
iter    objective    inf_pr   inf_du lg(mu)  ||d||  lg(rg) alpha_du alpha_pr  ls
  20  2.1981679e+01 2.04e-06 1.61e-02  -9.0 4.74e+01    -  1.00e+00 1.00e+00h  1
  21  2.1981679e+01 7.01e-12 3.33e-08  -9.0 1.48e-03    -  1.00e+00 1.00e+00h  1

Number of Iterations....: 21

                                   (scaled)                 (unscaled)
Objective...............:   2.1981678952832457e+01    2.1981678952832457e+01
Dual infeasibility......:   3.3295582197762428e-08    3.3295582197762428e-08
Constraint violation....:   7.0128347573472638e-12    7.0128347573472638e-12
Complementarity.........:   1.3711660735758435e-09    1.3711660735758435e-09
Overall NLP error.......:   1.8384315332515760e-10    3.3295582197762428e-08


Number of objective function evaluations             = 100
Number of objective gradient evaluations             = 22
Number of equality constraint evaluations            = 100
Number of inequality constraint evaluations          = 0
Number of equality constraint Jacobian evaluations   = 22
Number of inequality constraint Jacobian evaluations = 0
Number of Lagrangian Hessian evaluations             = 21
Total CPU secs in IPOPT (w/o function evaluations)   =      0.046
Total CPU secs in NLP function evaluations           =      0.886

EXIT: Optimal Solution Found.
